(set-info :source |printed by MathSAT|)
(declare-fun |!{$(in_main#0)<N>}| () Int)
(declare-fun |!{$(in_main#0)<N>}.next| () Int)
(declare-fun |!{$(in_main#0)<argmax>}| () Int)
(declare-fun |!{$(in_main#0)<argmax>}.next| () Int)
(declare-fun |!{$(in_main#0)<&array>}| () Int)
(declare-fun |!{$(in_main#0)<&array>}.next| () Int)
(declare-fun |!{$(in_main#0)<k>}| () Int)
(declare-fun |!{$(in_main#0)<k>}.next| () Int)
(declare-fun |!{$(in_main#0)<k#1>}| () Int)
(declare-fun |!{$(in_main#0)<k#1>}.next| () Int)
(declare-fun |!{%memaddr}| () Int)
(declare-fun |!{%memaddr}.next| () Int)
(declare-fun |!{%mem.0}| () (Array Int Int))
(declare-fun |!{%mem.0}.next| () (Array Int Int))
(declare-fun |!{$(in_main#0)<$(in___VERIFIER_nondet_int#1)<h#<__VERIFIER_nondet_int.return>>>}| () Int)
(declare-fun |!{$(in_main#0)<$(in___VERIFIER_nondet_int#3)<h#<__VERIFIER_nondet_int.return>>>}| () Int)
(declare-fun |!{$(in_main#0)<$(in_rec_array_argmax#4)<$temp.1>>}| () Int)
(declare-fun |!{$(in_main#0)<$(in_rec_array_argmax#4)<argmax>>}| () Int)
(declare-fun |!{$(in_main#0)<$(in_rec_array_argmax#4)<$tmp>>}| () Int)
(declare-fun |!{$(in_main#0)<$(in_rec_array_argmax#4)<$(in_rec_array_argmax#0)<$temp.1>>>}| () Int)
(declare-fun |!{$(in_main#0)<$(in_rec_array_argmax#4)<$(in_rec_array_argmax#0)<argmax>>>}| () Int)
(declare-fun |!{$(in_main#0)<$(in_rec_array_argmax#4)<$(in_rec_array_argmax#0)<$tmp>>>}| () Int)
(declare-fun !pc () Int)
(declare-fun !pc.next () Int)
(declare-fun |%{$(in_main#0)<argmax>}#1| () Int)
(declare-fun |%{$(in_main#0)<k#1>}#1| () Int)
(declare-fun rec_array_argmax<0> (Int Int Int Int) Int)
(declare-fun |%{$(in_main#0)<$(in_rec_array_argmax#4)<$(in_rec_array_argmax#0)<rec_array_argmax.return>>>}#3| () Int)
(declare-fun |%{$(in_main#0)<$(in_rec_array_argmax#4)<$(in_rec_array_argmax#0)<$temp.1>>>}#3| () Int)
(declare-fun |%{$(in_main#0)<$(in_rec_array_argmax#4)<$(in_rec_array_argmax#0)<argmax>>>}#3| () Int)
(declare-fun |%{$(in_main#0)<$(in_rec_array_argmax#4)<$(in_rec_array_argmax#0)<$tmp>>>}#3| () Int)
(declare-fun |%{$(in_main#0)<$(in_rec_array_argmax#4)<rec_array_argmax.return>>}#3| () Int)
(declare-fun |%{$(in_main#0)<$(in_rec_array_argmax#4)<$temp.1>>}#3| () Int)
(declare-fun |%{$(in_main#0)<$(in_rec_array_argmax#4)<argmax>>}#3| () Int)
(declare-fun |%{$(in_main#0)<$(in_rec_array_argmax#4)<$tmp>>}#3| () Int)
(define-fun .def_61 () Int (! !pc :next !pc.next))
(define-fun .def_64 () Bool (! (= .def_61 2) :init true))
(define-fun .def_342 () Bool (= .def_61 49))
(define-fun .def_151 () Bool (= !pc.next 176))
(define-fun .def_345 () Bool (and .def_151 .def_342))
(define-fun .def_336 () Bool (= |!{$(in_main#0)<k#1>}.next| 0))
(define-fun .def_332 () Bool (= |!{$(in_main#0)<argmax>}.next| |%{$(in_main#0)<$(in_rec_array_argmax#4)<rec_array_argmax.return>>}#3|))
(define-fun .def_8 () Int (! |!{$(in_main#0)<N>}| :next |!{$(in_main#0)<N>}.next|))
(define-fun .def_112 () Bool (= .def_8 |!{$(in_main#0)<N>}.next|))
(define-fun .def_333 () Bool (and .def_112 .def_332))
(define-fun .def_12 () Int (! |!{$(in_main#0)<&array>}| :next |!{$(in_main#0)<&array>}.next|))
(define-fun .def_116 () Bool (= .def_12 |!{$(in_main#0)<&array>}.next|))
(define-fun .def_334 () Bool (and .def_116 .def_333))
(define-fun .def_14 () Int (! |!{$(in_main#0)<k>}| :next |!{$(in_main#0)<k>}.next|))
(define-fun .def_118 () Bool (= .def_14 |!{$(in_main#0)<k>}.next|))
(define-fun .def_335 () Bool (and .def_118 .def_334))
(define-fun .def_337 () Bool (and .def_335 .def_336))
(define-fun .def_18 () Int (! |!{%memaddr}| :next |!{%memaddr}.next|))
(define-fun .def_122 () Bool (= .def_18 |!{%memaddr}.next|))
(define-fun .def_338 () Bool (and .def_122 .def_337))
(define-fun .def_20 () (Array Int Int) (! |!{%mem.0}| :next |!{%mem.0}.next|))
(define-fun .def_92 () Bool (= .def_20 |!{%mem.0}.next|))
(define-fun .def_339 () Bool (and .def_92 .def_338))
(define-fun .def_316 () Bool (= |!{$(in_main#0)<$(in_rec_array_argmax#4)<$tmp>>}| |%{$(in_main#0)<$(in_rec_array_argmax#4)<$tmp>>}#3|))
(define-fun .def_310 () Bool (= |!{$(in_main#0)<$(in_rec_array_argmax#4)<argmax>>}| |%{$(in_main#0)<$(in_rec_array_argmax#4)<argmax>>}#3|))
(define-fun .def_304 () Bool (= |!{$(in_main#0)<$(in_rec_array_argmax#4)<$temp.1>>}| |%{$(in_main#0)<$(in_rec_array_argmax#4)<$temp.1>>}#3|))
(define-fun .def_173 () Bool (<= 1 .def_8))
(define-fun .def_170 () Bool (<= .def_8 1))
(define-fun .def_171 () Bool (not .def_170))
(define-fun .def_168 () Bool (<= .def_8 0))
(define-fun .def_169 () Bool (not .def_168))
(define-fun .def_172 () Bool (and .def_169 .def_171))
(define-fun .def_174 () Bool (and .def_172 .def_173))
(define-fun .def_300 () Bool (not .def_174))
(define-fun .def_306 () Bool (and .def_300 .def_304))
(define-fun .def_312 () Bool (and .def_306 .def_310))
(define-fun .def_318 () Bool (and .def_312 .def_316))
(define-fun .def_280 () Int (* (- 1) |%{$(in_main#0)<$(in_rec_array_argmax#4)<rec_array_argmax.return>>}#3|))
(define-fun .def_281 () Int (+ .def_8 .def_280))
(define-fun .def_282 () Bool (= .def_281 1))
(define-fun .def_320 () Bool (and .def_282 .def_318))
(define-fun .def_317 () Bool (= |%{$(in_main#0)<$(in_rec_array_argmax#4)<$(in_rec_array_argmax#0)<rec_array_argmax.return>>>}#3| |%{$(in_main#0)<$(in_rec_array_argmax#4)<$tmp>>}#3|))
(define-fun .def_311 () Bool (= |%{$(in_main#0)<$(in_rec_array_argmax#4)<$(in_rec_array_argmax#0)<rec_array_argmax.return>>>}#3| |%{$(in_main#0)<$(in_rec_array_argmax#4)<argmax>>}#3|))
(define-fun .def_305 () Bool (= |%{$(in_main#0)<$(in_rec_array_argmax#4)<$(in_rec_array_argmax#0)<rec_array_argmax.return>>>}#3| |%{$(in_main#0)<$(in_rec_array_argmax#4)<$temp.1>>}#3|))
(define-fun .def_294 () Bool (= |%{$(in_main#0)<$(in_rec_array_argmax#4)<$(in_rec_array_argmax#0)<rec_array_argmax.return>>>}#3| |%{$(in_main#0)<$(in_rec_array_argmax#4)<rec_array_argmax.return>>}#3|))
(define-fun .def_192 () Int (+ .def_8 .def_12))
(define-fun .def_262 () Int (+ .def_192 (- 1)))
(define-fun .def_263 () Int (select .def_20 .def_262))
(define-fun .def_257 () Int (select .def_20 .def_12))
(define-fun .def_268 () Bool (<= .def_257 .def_263))
(define-fun .def_258 () Int (+ .def_12 |%{$(in_main#0)<$(in_rec_array_argmax#4)<$(in_rec_array_argmax#0)<rec_array_argmax.return>>>}#3|))
(define-fun .def_259 () Int (select .def_20 .def_258))
(define-fun .def_267 () Bool (<= .def_259 .def_263))
(define-fun .def_269 () Bool (and .def_267 .def_268))
(define-fun .def_289 () Bool (not .def_269))
(define-fun .def_264 () Bool (<= .def_263 .def_257))
(define-fun .def_260 () Bool (<= .def_259 .def_257))
(define-fun .def_265 () Bool (and .def_260 .def_264))
(define-fun .def_266 () Bool (not .def_265))
(define-fun .def_290 () Bool (and .def_266 .def_289))
(define-fun .def_295 () Bool (and .def_290 .def_294))
(define-fun .def_273 () Bool (and .def_266 .def_269))
(define-fun .def_284 () Bool (and .def_273 .def_282))
(define-fun .def_279 () Bool (= |%{$(in_main#0)<$(in_rec_array_argmax#4)<rec_array_argmax.return>>}#3| 0))
(define-fun .def_283 () Bool (and .def_265 .def_279))
(define-fun .def_285 () Bool (or .def_283 .def_284))
(define-fun .def_296 () Bool (or .def_285 .def_295))
(define-fun .def_249 () Bool (= |!{$(in_main#0)<$(in_rec_array_argmax#4)<$(in_rec_array_argmax#0)<$tmp>>>}| |%{$(in_main#0)<$(in_rec_array_argmax#4)<$(in_rec_array_argmax#0)<$tmp>>>}#3|))
(define-fun .def_243 () Bool (= |!{$(in_main#0)<$(in_rec_array_argmax#4)<$(in_rec_array_argmax#0)<argmax>>>}| |%{$(in_main#0)<$(in_rec_array_argmax#4)<$(in_rec_array_argmax#0)<argmax>>>}#3|))
(define-fun .def_237 () Bool (= |!{$(in_main#0)<$(in_rec_array_argmax#4)<$(in_rec_array_argmax#0)<$temp.1>>>}| |%{$(in_main#0)<$(in_rec_array_argmax#4)<$(in_rec_array_argmax#0)<$temp.1>>>}#3|))
(define-fun .def_180 () Bool (<= 3 .def_8))
(define-fun .def_176 () Bool (<= .def_8 2))
(define-fun .def_177 () Bool (not .def_176))
(define-fun .def_178 () Bool (and .def_171 .def_177))
(define-fun .def_181 () Bool (and .def_178 .def_180))
(define-fun .def_232 () Bool (not .def_181))
(define-fun .def_239 () Bool (and .def_232 .def_237))
(define-fun .def_245 () Bool (and .def_239 .def_243))
(define-fun .def_251 () Bool (and .def_245 .def_249))
(define-fun .def_212 () Int (* (- 1) |%{$(in_main#0)<$(in_rec_array_argmax#4)<$(in_rec_array_argmax#0)<rec_array_argmax.return>>>}#3|))
(define-fun .def_213 () Int (+ .def_8 .def_212))
(define-fun .def_214 () Bool (= .def_213 2))
(define-fun .def_253 () Bool (and .def_214 .def_251))
(define-fun .def_184 () Int (+ .def_8 (- 3)))
(define-fun .def_185 () Int (rec_array_argmax<0> .def_12 2 .def_184 .def_8))
(define-fun .def_250 () Bool (= .def_185 |%{$(in_main#0)<$(in_rec_array_argmax#4)<$(in_rec_array_argmax#0)<$tmp>>>}#3|))
(define-fun .def_244 () Bool (= .def_185 |%{$(in_main#0)<$(in_rec_array_argmax#4)<$(in_rec_array_argmax#0)<argmax>>>}#3|))
(define-fun .def_238 () Bool (= .def_185 |%{$(in_main#0)<$(in_rec_array_argmax#4)<$(in_rec_array_argmax#0)<$temp.1>>>}#3|))
(define-fun .def_226 () Bool (= .def_185 |%{$(in_main#0)<$(in_rec_array_argmax#4)<$(in_rec_array_argmax#0)<rec_array_argmax.return>>>}#3|))
(define-fun .def_194 () Int (+ .def_192 (- 2)))
(define-fun .def_195 () Int (select .def_20 .def_194))
(define-fun .def_186 () Int (+ .def_12 1))
(define-fun .def_187 () Int (select .def_20 .def_186))
(define-fun .def_200 () Bool (<= .def_187 .def_195))
(define-fun .def_188 () Int (+ .def_12 .def_185))
(define-fun .def_189 () Int (select .def_20 .def_188))
(define-fun .def_199 () Bool (<= .def_189 .def_195))
(define-fun .def_201 () Bool (and .def_199 .def_200))
(define-fun .def_221 () Bool (not .def_201))
(define-fun .def_196 () Bool (<= .def_195 .def_187))
(define-fun .def_190 () Bool (<= .def_189 .def_187))
(define-fun .def_197 () Bool (and .def_190 .def_196))
(define-fun .def_198 () Bool (not .def_197))
(define-fun .def_222 () Bool (and .def_198 .def_221))
(define-fun .def_227 () Bool (and .def_222 .def_226))
(define-fun .def_205 () Bool (and .def_198 .def_201))
(define-fun .def_216 () Bool (and .def_205 .def_214))
(define-fun .def_211 () Bool (= |%{$(in_main#0)<$(in_rec_array_argmax#4)<$(in_rec_array_argmax#0)<rec_array_argmax.return>>>}#3| 1))
(define-fun .def_215 () Bool (and .def_197 .def_211))
(define-fun .def_217 () Bool (or .def_215 .def_216))
(define-fun .def_228 () Bool (or .def_217 .def_227))
(define-fun .def_229 () Bool (and .def_181 .def_228))
(define-fun .def_240 () Bool (and .def_229 .def_238))
(define-fun .def_246 () Bool (and .def_240 .def_244))
(define-fun .def_252 () Bool (and .def_246 .def_250))
(define-fun .def_254 () Bool (or .def_252 .def_253))
(define-fun .def_297 () Bool (and .def_254 .def_296))
(define-fun .def_298 () Bool (and .def_174 .def_297))
(define-fun .def_307 () Bool (and .def_298 .def_305))
(define-fun .def_313 () Bool (and .def_307 .def_311))
(define-fun .def_319 () Bool (and .def_313 .def_317))
(define-fun .def_321 () Bool (or .def_319 .def_320))
(define-fun .def_340 () Bool (and .def_321 .def_339))
(define-fun .def_162 () Bool (<= .def_8 .def_14))
(define-fun .def_341 () Bool (and .def_162 .def_340))
(define-fun .def_346 () Bool (and .def_341 .def_345))
(define-fun .def_96 () Bool (= !pc.next 49))
(define-fun .def_343 () Bool (and .def_96 .def_342))
(define-fun .def_164 () Int (+ .def_12 .def_14))
(define-fun .def_165 () (Array Int Int) (store .def_20 .def_164 |!{$(in_main#0)<$(in___VERIFIER_nondet_int#3)<h#<__VERIFIER_nondet_int.return>>>}|))
(define-fun .def_329 () Bool (= |!{%mem.0}.next| .def_165))
(define-fun .def_323 () Int (* (- 1) |!{$(in_main#0)<k>}.next|))
(define-fun .def_324 () Int (+ .def_14 .def_323))
(define-fun .def_325 () Bool (= .def_324 (- 1)))
(define-fun .def_10 () Int (! |!{$(in_main#0)<argmax>}| :next |!{$(in_main#0)<argmax>}.next|))
(define-fun .def_114 () Bool (= .def_10 |!{$(in_main#0)<argmax>}.next|))
(define-fun .def_126 () Bool (and .def_112 .def_114))
(define-fun .def_127 () Bool (and .def_116 .def_126))
(define-fun .def_326 () Bool (and .def_127 .def_325))
(define-fun .def_16 () Int (! |!{$(in_main#0)<k#1>}| :next |!{$(in_main#0)<k#1>}.next|))
(define-fun .def_120 () Bool (= .def_16 |!{$(in_main#0)<k#1>}.next|))
(define-fun .def_327 () Bool (and .def_120 .def_326))
(define-fun .def_328 () Bool (and .def_122 .def_327))
(define-fun .def_330 () Bool (and .def_328 .def_329))
(define-fun .def_163 () Bool (not .def_162))
(define-fun .def_331 () Bool (and .def_163 .def_330))
(define-fun .def_344 () Bool (and .def_331 .def_343))
(define-fun .def_347 () Bool (or .def_344 .def_346))
(define-fun .def_155 () Bool (= !pc.next 0))
(define-fun .def_146 () Bool (= .def_61 176))
(define-fun .def_156 () Bool (and .def_146 .def_155))
(define-fun .def_99 () Bool (<= .def_8 .def_16))
(define-fun .def_138 () Bool (and .def_99 .def_112))
(define-fun .def_139 () Bool (and .def_114 .def_138))
(define-fun .def_140 () Bool (and .def_116 .def_139))
(define-fun .def_141 () Bool (and .def_118 .def_140))
(define-fun .def_142 () Bool (and .def_120 .def_141))
(define-fun .def_143 () Bool (and .def_122 .def_142))
(define-fun .def_144 () Bool (and .def_92 .def_143))
(define-fun .def_157 () Bool (and .def_144 .def_156))
(define-fun .def_152 () Bool (and .def_146 .def_151))
(define-fun .def_130 () Int (* (- 1) |!{$(in_main#0)<k#1>}.next|))
(define-fun .def_131 () Int (+ .def_16 .def_130))
(define-fun .def_132 () Bool (= .def_131 (- 1)))
(define-fun .def_128 () Bool (and .def_118 .def_127))
(define-fun .def_133 () Bool (and .def_128 .def_132))
(define-fun .def_134 () Bool (and .def_122 .def_133))
(define-fun .def_135 () Bool (and .def_92 .def_134))
(define-fun .def_103 () Int (+ .def_10 .def_12))
(define-fun .def_104 () Int (select .def_20 .def_103))
(define-fun .def_101 () Int (+ .def_12 .def_16))
(define-fun .def_102 () Int (select .def_20 .def_101))
(define-fun .def_105 () Bool (<= .def_102 .def_104))
(define-fun .def_106 () Int (ite .def_105 1 0))
(define-fun .def_107 () Bool (= .def_106 0))
(define-fun .def_108 () Bool (not .def_107))
(define-fun .def_136 () Bool (and .def_108 .def_135))
(define-fun .def_100 () Bool (not .def_99))
(define-fun .def_137 () Bool (and .def_100 .def_136))
(define-fun .def_153 () Bool (and .def_137 .def_152))
(define-fun .def_148 () Bool (= !pc.next 196))
(define-fun .def_149 () Bool (and .def_146 .def_148))
(define-fun .def_113 () Bool (and .def_107 .def_112))
(define-fun .def_115 () Bool (and .def_113 .def_114))
(define-fun .def_117 () Bool (and .def_115 .def_116))
(define-fun .def_119 () Bool (and .def_117 .def_118))
(define-fun .def_121 () Bool (and .def_119 .def_120))
(define-fun .def_123 () Bool (and .def_121 .def_122))
(define-fun .def_124 () Bool (and .def_92 .def_123))
(define-fun .def_125 () Bool (and .def_100 .def_124))
(define-fun .def_150 () Bool (and .def_125 .def_149))
(define-fun .def_154 () Bool (or .def_150 .def_153))
(define-fun .def_158 () Bool (or .def_154 .def_157))
(define-fun .def_97 () Bool (and .def_64 .def_96))
(define-fun .def_90 () Bool (= |!{%memaddr}.next| 2))
(define-fun .def_88 () Bool (= |!{$(in_main#0)<k#1>}.next| |%{$(in_main#0)<k#1>}#1|))
(define-fun .def_86 () Bool (= |!{$(in_main#0)<k>}.next| 0))
(define-fun .def_84 () Bool (= |!{$(in_main#0)<&array>}.next| 1))
(define-fun .def_82 () Bool (= |!{$(in_main#0)<argmax>}.next| |%{$(in_main#0)<argmax>}#1|))
(define-fun .def_81 () Bool (= |!{$(in_main#0)<N>}.next| |!{$(in_main#0)<$(in___VERIFIER_nondet_int#1)<h#<__VERIFIER_nondet_int.return>>>}|))
(define-fun .def_83 () Bool (and .def_81 .def_82))
(define-fun .def_85 () Bool (and .def_83 .def_84))
(define-fun .def_87 () Bool (and .def_85 .def_86))
(define-fun .def_89 () Bool (and .def_87 .def_88))
(define-fun .def_91 () Bool (and .def_89 .def_90))
(define-fun .def_93 () Bool (and .def_91 .def_92))
(define-fun .def_76 () Bool (<= |!{$(in_main#0)<$(in___VERIFIER_nondet_int#1)<h#<__VERIFIER_nondet_int.return>>>}| 0))
(define-fun .def_77 () Bool (not .def_76))
(define-fun .def_78 () Int (ite .def_77 1 0))
(define-fun .def_79 () Bool (= .def_78 0))
(define-fun .def_80 () Bool (not .def_79))
(define-fun .def_94 () Bool (and .def_80 .def_93))
(define-fun .def_98 () Bool (and .def_94 .def_97))
(define-fun .def_159 () Bool (or .def_98 .def_158))
(define-fun .def_348 () Bool (! (or .def_159 .def_347) :trans true))
(define-fun .def_160 () Bool (= .def_61 196))
(define-fun .def_349 () Bool (! (not .def_160) :invar-property 0 :invar-property-name ||))
(assert true)
